submitit INFO (2023-04-29 16:25:41,898) - Starting with JobEnvironment(job_id=27469, hostname=cpunode3, local_rank=3(5), node=0(1), global_rank=3(5))
submitit INFO (2023-04-29 16:25:41,898) - Loading pickle: /h/30/pashootan/Matrix-Mult-CP/src/../logs/2x2x2_4_Apr29_16:25:39/27469_submitted.pkl
 ! --------------------------------------------------- CP Optimizer 22.1.1.0 --
 ! Satisfiability problem - 48 variables, 64 constraints
 ! TimeLimit            = 172800
 ! Workers              = 8
 ! LogPeriod            = 10000000
 ! RandomSeed           = 7262
 ! Initial process time : 0.01s (0.00s extraction + 0.01s propagation)
 !  . Log search space  : 76.1 (before), 76.1 (after)
 !  . Memory usage      : 397.6 kB (before), 397.6 kB (after)
 ! Using parallel search with 8 workers.
 ! ----------------------------------------------------------------------------
 !               Branches  Non-fixed    W       Branch decision
 ! ----------------------------------------------------------------------------
 ! Search completed, model has no solution.
 ! ----------------------------------------------------------------------------
 ! Number of branches     : 33650840
 ! Number of fails        : 16634994
 ! Total memory usage     : 29.3 MB (29.3 MB CP Optimizer + 0.0 MB Concert)
 ! Time spent in solve    : 38.54s (38.54s engine + 0.00s extraction)
 ! Search speed (br. / s) : 873140.6
 ! ----------------------------------------------------------------------------
Infeasible
Saving stats to: /h/30/pashootan/Matrix-Mult-CP/logs/2x2x2_4_Apr29_16:25:39/27469_3_stats.csv
submitit INFO (2023-04-29 16:26:20,999) - Job completed successfully
